\Problem name: compact

Minimize
OBJROW: C
Subject To
ord(0,1):  - x(0,1) + x(0,2) >= 7
ord(0,2):  x(0,0) - x(0,2) >= 7
ord(1,1):  x(1,0) - x(1,1) >= 4
ord(1,2):  - x(1,0) + x(1,2) >= 3
ord(2,1):  - x(2,1) + x(2,2) >= 7
ord(2,2):  x(2,0) - x(2,2) >= 6
triangle2(0,1,0):  y(0,1,0) + y(1,0,0) = 1
triangle2(0,1,1):  y(0,1,1) + y(1,0,1) = 1
triangle2(0,1,2):  y(0,1,2) + y(1,0,2) = 1
triangle2(0,2,0):  y(0,2,0) + y(2,0,0) = 1
triangle2(0,2,1):  y(0,2,1) + y(2,0,1) = 1
triangle2(0,2,2):  y(0,2,2) + y(2,0,2) = 1
triangle2(1,2,0):  y(1,2,0) + y(2,1,0) = 1
triangle2(1,2,1):  y(1,2,1) + y(2,1,1) = 1
triangle2(1,2,2):  y(1,2,2) + y(2,1,2) = 1
MCLinV(0,1,0):  - x(0,0) + v(0,1,0)p - v(0,1,0)n + x(1,0) = -3
MCLinV(1,0,0):  x(0,0) + v(1,0,0)p - v(1,0,0)n - x(1,0) = -1
MCLin1(0,1,0):  u(0,1,0)p - u(0,1,0)n >= 0
MCLin2(0,1,0):  23 y(1,0,0) + u(0,1,0)p - u(0,1,0)n >= 0
MCLin3(0,1,0):  -36 y(1,0,0) - v(0,1,0)p + v(0,1,0)n + u(0,1,0)p - u(0,1,0)n >= -36
MCLin4(0,1,0):  -36 y(1,0,0) + u(0,1,0)p - u(0,1,0)n <= 0
MCLin5(0,1,0):  23 y(1,0,0) - v(0,1,0)p + v(0,1,0)n + u(0,1,0)p - u(0,1,0)n <= 23
MCLin6(1,0,0):  u(1,0,0)p - u(1,0,0)n >= 0
MCLin7(1,0,0):  40 y(0,1,0) + u(1,0,0)p - u(1,0,0)n >= 0
MCLin8(1,0,0):  -19 y(0,1,0) - v(1,0,0)p + v(1,0,0)n + u(1,0,0)p - u(1,0,0)n >= -19
MCLin9(1,0,0):  -19 y(0,1,0) + u(1,0,0)p - u(1,0,0)n <= 0
MCLin10(1,0,0):  40 y(0,1,0) - v(1,0,0)p + v(1,0,0)n + u(1,0,0)p - u(1,0,0)n <= 40
MCLinV(0,1,1):  - x(0,1) + v(0,1,1)p - v(0,1,1)n + x(1,1) = -4
MCLinV(1,0,1):  x(0,1) + v(1,0,1)p - v(1,0,1)n - x(1,1) = -7
MCLin1(0,1,1):  u(0,1,1)p - u(0,1,1)n >= 0
MCLin2(0,1,1):  34 y(1,0,1) + u(0,1,1)p - u(0,1,1)n >= 0
MCLin3(0,1,1):  -25 y(1,0,1) - v(0,1,1)p + v(0,1,1)n + u(0,1,1)p - u(0,1,1)n >= -25
MCLin4(0,1,1):  -25 y(1,0,1) + u(0,1,1)p - u(0,1,1)n <= 0
MCLin5(0,1,1):  34 y(1,0,1) - v(0,1,1)p + v(0,1,1)n + u(0,1,1)p - u(0,1,1)n <= 34
MCLin6(1,0,1):  u(1,0,1)p - u(1,0,1)n >= 0
MCLin7(1,0,1):  36 y(0,1,1) + u(1,0,1)p - u(1,0,1)n >= 0
MCLin8(1,0,1):  -23 y(0,1,1) - v(1,0,1)p + v(1,0,1)n + u(1,0,1)p - u(1,0,1)n >= -23
MCLin9(1,0,1):  -23 y(0,1,1) + u(1,0,1)p - u(1,0,1)n <= 0
MCLin10(1,0,1):  36 y(0,1,1) - v(1,0,1)p + v(1,0,1)n + u(1,0,1)p - u(1,0,1)n <= 36
MCLinV(0,1,2):  - x(0,2) + v(0,1,2)p - v(0,1,2)n + x(1,2) = -7
MCLinV(1,0,2):  x(0,2) + v(1,0,2)p - v(1,0,2)n - x(1,2) = -7
MCLin1(0,1,2):  u(0,1,2)p - u(0,1,2)n >= 0
MCLin2(0,1,2):  37 y(1,0,2) + u(0,1,2)p - u(0,1,2)n >= 0
MCLin3(0,1,2):  -22 y(1,0,2) - v(0,1,2)p + v(0,1,2)n + u(0,1,2)p - u(0,1,2)n >= -22
MCLin4(0,1,2):  -22 y(1,0,2) + u(0,1,2)p - u(0,1,2)n <= 0
MCLin5(0,1,2):  37 y(1,0,2) - v(0,1,2)p + v(0,1,2)n + u(0,1,2)p - u(0,1,2)n <= 37
MCLin6(1,0,2):  u(1,0,2)p - u(1,0,2)n >= 0
MCLin7(1,0,2):  36 y(0,1,2) + u(1,0,2)p - u(1,0,2)n >= 0
MCLin8(1,0,2):  -23 y(0,1,2) - v(1,0,2)p + v(1,0,2)n + u(1,0,2)p - u(1,0,2)n >= -23
MCLin9(1,0,2):  -23 y(0,1,2) + u(1,0,2)p - u(1,0,2)n <= 0
MCLin10(1,0,2):  36 y(0,1,2) - v(1,0,2)p + v(1,0,2)n + u(1,0,2)p - u(1,0,2)n <= 36
MCLinV(0,2,0):  - x(0,0) + v(0,2,0)p - v(0,2,0)n + x(2,0) = -2
MCLinV(2,0,0):  x(0,0) + v(2,0,0)p - v(2,0,0)n - x(2,0) = -1
MCLin1(0,2,0):  u(0,2,0)p - u(0,2,0)n >= 0
MCLin2(0,2,0):  30 y(2,0,0) + u(0,2,0)p - u(0,2,0)n >= 0
MCLin3(0,2,0):  -28 y(2,0,0) - v(0,2,0)p + v(0,2,0)n + u(0,2,0)p - u(0,2,0)n >= -28
MCLin4(0,2,0):  -28 y(2,0,0) + u(0,2,0)p - u(0,2,0)n <= 0
MCLin5(0,2,0):  30 y(2,0,0) - v(0,2,0)p + v(0,2,0)n + u(0,2,0)p - u(0,2,0)n <= 30
MCLin6(2,0,0):  u(2,0,0)p - u(2,0,0)n >= 0
MCLin7(2,0,0):  31 y(0,2,0) + u(2,0,0)p - u(2,0,0)n >= 0
MCLin8(2,0,0):  -27 y(0,2,0) - v(2,0,0)p + v(2,0,0)n + u(2,0,0)p - u(2,0,0)n >= -27
MCLin9(2,0,0):  -27 y(0,2,0) + u(2,0,0)p - u(2,0,0)n <= 0
MCLin10(2,0,0):  31 y(0,2,0) - v(2,0,0)p + v(2,0,0)n + u(2,0,0)p - u(2,0,0)n <= 31
MCLinV(0,2,1):  - x(0,1) + v(0,2,1)p - v(0,2,1)n + x(2,1) = -7
MCLinV(2,0,1):  x(0,1) + v(2,0,1)p - v(2,0,1)n - x(2,1) = -7
MCLin1(0,2,1):  u(0,2,1)p - u(0,2,1)n >= 0
MCLin2(0,2,1):  36 y(2,0,1) + u(0,2,1)p - u(0,2,1)n >= 0
MCLin3(0,2,1):  -22 y(2,0,1) - v(0,2,1)p + v(0,2,1)n + u(0,2,1)p - u(0,2,1)n >= -22
MCLin4(0,2,1):  -22 y(2,0,1) + u(0,2,1)p - u(0,2,1)n <= 0
MCLin5(0,2,1):  36 y(2,0,1) - v(0,2,1)p + v(0,2,1)n + u(0,2,1)p - u(0,2,1)n <= 36
MCLin6(2,0,1):  u(2,0,1)p - u(2,0,1)n >= 0
MCLin7(2,0,1):  36 y(0,2,1) + u(2,0,1)p - u(2,0,1)n >= 0
MCLin8(2,0,1):  -22 y(0,2,1) - v(2,0,1)p + v(2,0,1)n + u(2,0,1)p - u(2,0,1)n >= -22
MCLin9(2,0,1):  -22 y(0,2,1) + u(2,0,1)p - u(2,0,1)n <= 0
MCLin10(2,0,1):  36 y(0,2,1) - v(2,0,1)p + v(2,0,1)n + u(2,0,1)p - u(2,0,1)n <= 36
MCLinV(0,2,2):  - x(0,2) + v(0,2,2)p - v(0,2,2)n + x(2,2) = -6
MCLinV(2,0,2):  x(0,2) + v(2,0,2)p - v(2,0,2)n - x(2,2) = -7
MCLin1(0,2,2):  u(0,2,2)p - u(0,2,2)n >= 0
MCLin2(0,2,2):  35 y(2,0,2) + u(0,2,2)p - u(0,2,2)n >= 0
MCLin3(0,2,2):  -23 y(2,0,2) - v(0,2,2)p + v(0,2,2)n + u(0,2,2)p - u(0,2,2)n >= -23
MCLin4(0,2,2):  -23 y(2,0,2) + u(0,2,2)p - u(0,2,2)n <= 0
MCLin5(0,2,2):  35 y(2,0,2) - v(0,2,2)p + v(0,2,2)n + u(0,2,2)p - u(0,2,2)n <= 35
MCLin6(2,0,2):  u(2,0,2)p - u(2,0,2)n >= 0
MCLin7(2,0,2):  36 y(0,2,2) + u(2,0,2)p - u(2,0,2)n >= 0
MCLin8(2,0,2):  -22 y(0,2,2) - v(2,0,2)p + v(2,0,2)n + u(2,0,2)p - u(2,0,2)n >= -22
MCLin9(2,0,2):  -22 y(0,2,2) + u(2,0,2)p - u(2,0,2)n <= 0
MCLin10(2,0,2):  36 y(0,2,2) - v(2,0,2)p + v(2,0,2)n + u(2,0,2)p - u(2,0,2)n <= 36
MCLinV(1,2,0):  - x(1,0) + v(1,2,0)p - v(1,2,0)n + x(2,0) = -2
MCLinV(2,1,0):  x(1,0) + v(2,1,0)p - v(2,1,0)n - x(2,0) = -3
MCLin1(1,2,0):  u(1,2,0)p - u(1,2,0)n >= 0
MCLin2(1,2,0):  40 y(2,1,0) + u(1,2,0)p - u(1,2,0)n >= 0
MCLin3(1,2,0):  -19 y(2,1,0) - v(1,2,0)p + v(1,2,0)n + u(1,2,0)p - u(1,2,0)n >= -19
MCLin4(1,2,0):  -19 y(2,1,0) + u(1,2,0)p - u(1,2,0)n <= 0
MCLin5(1,2,0):  40 y(2,1,0) - v(1,2,0)p + v(1,2,0)n + u(1,2,0)p - u(1,2,0)n <= 40
MCLin6(2,1,0):  u(2,1,0)p - u(2,1,0)n >= 0
MCLin7(2,1,0):  24 y(1,2,0) + u(2,1,0)p - u(2,1,0)n >= 0
MCLin8(2,1,0):  -35 y(1,2,0) - v(2,1,0)p + v(2,1,0)n + u(2,1,0)p - u(2,1,0)n >= -35
MCLin9(2,1,0):  -35 y(1,2,0) + u(2,1,0)p - u(2,1,0)n <= 0
MCLin10(2,1,0):  24 y(1,2,0) - v(2,1,0)p + v(2,1,0)n + u(2,1,0)p - u(2,1,0)n <= 24
MCLinV(1,2,1):  - x(1,1) + v(1,2,1)p - v(1,2,1)n + x(2,1) = -7
MCLinV(2,1,1):  x(1,1) + v(2,1,1)p - v(2,1,1)n - x(2,1) = -4
MCLin1(1,2,1):  u(1,2,1)p - u(1,2,1)n >= 0
MCLin2(1,2,1):  36 y(2,1,1) + u(1,2,1)p - u(1,2,1)n >= 0
MCLin3(1,2,1):  -23 y(2,1,1) - v(1,2,1)p + v(1,2,1)n + u(1,2,1)p - u(1,2,1)n >= -23
MCLin4(1,2,1):  -23 y(2,1,1) + u(1,2,1)p - u(1,2,1)n <= 0
MCLin5(1,2,1):  36 y(2,1,1) - v(1,2,1)p + v(1,2,1)n + u(1,2,1)p - u(1,2,1)n <= 36
MCLin6(2,1,1):  u(2,1,1)p - u(2,1,1)n >= 0
MCLin7(2,1,1):  34 y(1,2,1) + u(2,1,1)p - u(2,1,1)n >= 0
MCLin8(2,1,1):  -25 y(1,2,1) - v(2,1,1)p + v(2,1,1)n + u(2,1,1)p - u(2,1,1)n >= -25
MCLin9(2,1,1):  -25 y(1,2,1) + u(2,1,1)p - u(2,1,1)n <= 0
MCLin10(2,1,1):  34 y(1,2,1) - v(2,1,1)p + v(2,1,1)n + u(2,1,1)p - u(2,1,1)n <= 34
MCLinV(1,2,2):  - x(1,2) + v(1,2,2)p - v(1,2,2)n + x(2,2) = -6
MCLinV(2,1,2):  x(1,2) + v(2,1,2)p - v(2,1,2)n - x(2,2) = -7
MCLin1(1,2,2):  u(1,2,2)p - u(1,2,2)n >= 0
MCLin2(1,2,2):  35 y(2,1,2) + u(1,2,2)p - u(1,2,2)n >= 0
MCLin3(1,2,2):  -24 y(2,1,2) - v(1,2,2)p + v(1,2,2)n + u(1,2,2)p - u(1,2,2)n >= -24
MCLin4(1,2,2):  -24 y(2,1,2) + u(1,2,2)p - u(1,2,2)n <= 0
MCLin5(1,2,2):  35 y(2,1,2) - v(1,2,2)p + v(1,2,2)n + u(1,2,2)p - u(1,2,2)n <= 35
MCLin6(2,1,2):  u(2,1,2)p - u(2,1,2)n >= 0
MCLin7(2,1,2):  37 y(1,2,2) + u(2,1,2)p - u(2,1,2)n >= 0
MCLin8(2,1,2):  -22 y(1,2,2) - v(2,1,2)p + v(2,1,2)n + u(2,1,2)p - u(2,1,2)n >= -22
MCLin9(2,1,2):  -22 y(1,2,2) + u(2,1,2)p - u(2,1,2)n <= 0
MCLin10(2,1,2):  37 y(1,2,2) - v(2,1,2)p + v(2,1,2)n + u(2,1,2)p - u(2,1,2)n <= 37
makespan(0):  C - x(0,0) >= 1
makespan(1):  C - x(1,2) >= 7
makespan(2):  C - x(2,0) >= 2
cut_clique_1(0,1):  0.98962 x(0,1) + 0.34841 x(1,1) + 0.57240 x(2,1) >= 1
cut_clique_1(1,1):  0.89463 x(0,1) + 0.98993 x(2,1) >= 1
cut_clique_1(2,1):  0.92230 x(0,1) + 0.98993 x(2,1) >= 1
cut_clique_1(3,1):  0.83491 x(0,1) + 0.90016 x(1,1) + 0.32162 x(2,1) >= 1
cut_clique_1(4,1):  0.13659 x(0,1) + 0.98444 x(1,1) + 0.74230 x(2,1) >= 1
cut_clique_1(5,1):  0.67148 x(0,1) + 0.77695 x(1,1) + 0.40685 x(2,1) >= 1
cut_clique_1(6,1):  0.12902 x(0,1) + 0.91959 x(1,1) + 0.80263 x(2,1) >= 1
cut_clique_1(7,1):  0.83491 x(0,1) + 0.97843 x(1,1) + 0.28716 x(2,1) >= 1
cut_clique_1(8,1):  0.93024 x(0,1) + 0.38674 x(1,1) + 0.60674 x(2,1) >= 1
cut_clique_1(9,1):  0.62693 x(0,1) + 0.88617 x(1,1) + 0.39465 x(2,1) >= 1
cut_clique_1(10,1):  0.82114 x(0,1) + 0.46579 x(1,1) + 0.55785 x(2,1) >= 1
cut_clique_1(11,1):  0.72987 x(0,1) + 0.77695 x(1,1) + 0.40685 x(2,1) >= 1
cut_clique_1(12,1):  0.66982 x(0,1) + 0.93984 x(1,1) + 0.22702 x(2,1) >= 1
cut_clique_1(13,1):  0.15707 x(0,1) + 0.93522 x(1,1) + 0.74230 x(2,1) >= 1
cut_clique_1(14,1):  0.21451 x(0,1) + 0.96984 x(1,1) + 0.68113 x(2,1) >= 1
cut_clique_1(15,1):  0.68212 x(0,1) + 0.79535 x(1,1) + 0.40685 x(2,1) >= 1
cut_clique_1(16,1):  0.83491 x(0,1) + 0.86451 x(1,1) + 0.40685 x(2,1) >= 1
cut_clique_1(17,1):  0.83491 x(0,1) + 0.86451 x(1,1) + 0.35379 x(2,1) >= 1
cut_clique_1(18,1):  0.66982 x(0,1) + 0.93984 x(1,1) + 0.24972 x(2,1) >= 1
cut_clique_1(19,1):  0.76549 x(0,1) + 0.74587 x(1,1) + 0.39465 x(2,1) >= 1
cut_clique_1(20,1):  0.62693 x(0,1) + 0.88617 x(1,1) + 0.33940 x(2,1) >= 1
cut_clique_1(21,1):  0.68212 x(0,1) + 0.77695 x(1,1) + 0.40685 x(2,1) >= 1
cut_clique_1(22,1):  0.93360 x(0,1) + 0.34841 x(1,1) + 0.57240 x(2,1) >= 1
cut_clique_1(23,1):  0.26560 x(0,1) + 0.91286 x(1,1) + 0.66069 x(2,1) >= 1
cut_clique_1(24,1):  0.87607 x(0,1) + 0.46579 x(1,1) + 0.52135 x(2,1) >= 1
cut_clique_1(25,1):  0.83491 x(0,1) + 0.97843 x(1,1) + 0.32162 x(2,1) >= 1
cut_clique_1(26,1):  0.87607 x(0,1) + 0.46579 x(1,1) + 0.55785 x(2,1) >= 1
cut_clique_1(27,1):  0.98962 x(0,1) + 0.34841 x(1,1) + 0.60674 x(2,1) >= 1
cut_clique_1(28,1):  0.83491 x(0,1) + 0.88215 x(1,1) + 0.35379 x(2,1) >= 1
cut_clique_1(29,1):  0.25232 x(0,1) + 0.91286 x(1,1) + 0.75979 x(2,1) >= 1
cut_clique_1(30,1):  0.21926 x(0,1) + 0.79748 x(1,1) + 0.83627 x(2,1) >= 1
cut_clique_1(31,1):  0.83491 x(0,1) + 0.88215 x(1,1) + 0.32162 x(2,1) >= 1
cut_clique_1(32,1):  0.69659 x(0,1) + 0.88617 x(1,1) + 0.39465 x(2,1) >= 1
cut_clique_1(33,1):  0.83365 x(0,1) + 0.56864 x(1,1) + 0.46010 x(2,1) >= 1
cut_clique_1(34,1):  0.81730 x(0,1) + 0.56864 x(1,1) + 0.46010 x(2,1) >= 1
cut_clique_1(35,1):  0.79316 x(0,1) + 0.86451 x(1,1) + 0.40685 x(2,1) >= 1
cut_clique_1(36,1):  0.79316 x(0,1) + 0.79535 x(1,1) + 0.40685 x(2,1) >= 1
cut_clique_1(37,1):  0.95815 x(0,1) + 0.38674 x(1,1) + 0.60674 x(2,1) >= 1
cut_clique_1(38,1):  0.13160 x(0,1) + 0.98444 x(1,1) + 0.74230 x(2,1) >= 1
cut_clique_1(39,1):  0.23596 x(0,1) + 0.96984 x(1,1) + 0.68113 x(2,1) >= 1
cut_clique_1(40,1):  0.78009 x(0,1) + 0.46579 x(1,1) + 0.61921 x(2,1) >= 1
cut_clique_1(41,1):  0.69659 x(0,1) + 0.81300 x(1,1) + 0.39465 x(2,1) >= 1
cut_clique_1(42,1):  0.98962 x(0,1) + 0.38674 x(1,1) + 0.60674 x(2,1) >= 1
cut_clique_1(43,1):  0.89716 x(0,1) + 0.51755 x(1,1) + 0.42651 x(2,1) >= 1
cut_clique_1(44,1):  0.25232 x(0,1) + 0.82157 x(1,1) + 0.80538 x(2,1) >= 1
cut_clique_1(45,1):  0.69659 x(0,1) + 0.74587 x(1,1) + 0.39465 x(2,1) >= 1
cut_clique_1(46,1):  0.12765 x(0,1) + 0.98444 x(1,1) + 0.74230 x(2,1) >= 1
cut_clique_1(47,1):  0.82114 x(0,1) + 0.46579 x(1,1) + 0.61921 x(2,1) >= 1
cut_clique_1(48,1):  0.78009 x(0,1) + 0.50772 x(1,1) + 0.61921 x(2,1) >= 1
cut_clique_1(49,1):  0.94224 x(1,1) + 0.90885 x(2,1) >= 1
cut_clique_1(0,2):  0.04794 x(0,2) + 0.04807 x(1,2) >= 1
cut_clique_1(1,2):  0.04807 x(0,2) + 0.04760 x(1,2) >= 1
cut_clique_1(2,2):  0.04681 x(0,2) + 0.04925 x(1,2) >= 1
cut_clique_1(3,2):  0.04796 x(0,2) + 0.04750 x(1,2) >= 1
cut_clique_1(4,2):  0.04775 x(0,2) + 0.04803 x(1,2) >= 1
cut_clique_1(5,2):  0.04746 x(0,2) + 0.04856 x(1,2) >= 1
cut_clique_1(6,2):  0.04735 x(0,2) + 0.04854 x(1,2) >= 1
cut_clique_1(7,2):  0.04775 x(0,2) + 0.04780 x(1,2) >= 1
cut_clique_1(8,2):  0.04806 x(0,2) + 0.04777 x(1,2) >= 1
cut_clique_1(9,2):  0.04735 x(0,2) + 0.04850 x(1,2) >= 1
cut_clique_1(10,2):  0.04803 x(0,2) + 0.04749 x(1,2) >= 1
cut_clique_1(11,2):  0.04750 x(0,2) + 0.04788 x(1,2) >= 1
cut_clique_1(12,2):  0.04794 x(0,2) + 0.04759 x(1,2) >= 1
cut_clique_1(13,2):  0.04763 x(0,2) + 0.04783 x(1,2) >= 1
cut_clique_1(14,2):  0.04911 x(0,2) + 0.04695 x(1,2) >= 1
cut_clique_1(15,2):  0.04768 x(0,2) + 0.04828 x(1,2) >= 1
cut_clique_1(16,2):  0.04745 x(0,2) + 0.04853 x(1,2) >= 1
cut_clique_1(17,2):  0.04758 x(0,2) + 0.04777 x(1,2) >= 1
cut_clique_1(18,2):  0.04783 x(0,2) + 0.04756 x(1,2) >= 1
cut_clique_1(19,2):  0.04704 x(0,2) + 0.04898 x(1,2) >= 1
cut_clique_1(20,2):  0.04806 x(0,2) + 0.04760 x(1,2) >= 1
cut_clique_1(21,2):  0.04807 x(0,2) + 0.04740 x(1,2) >= 1
cut_clique_1(22,2):  0.04772 x(0,2) + 0.04765 x(1,2) >= 1
cut_clique_1(23,2):  0.04711 x(0,2) + 0.04882 x(1,2) >= 1
cut_clique_1(24,2):  0.04899 x(0,2) + 0.04698 x(1,2) >= 1
cut_clique_1(25,2):  0.04771 x(0,2) + 0.04804 x(1,2) >= 1
cut_clique_1(26,2):  0.04735 x(0,2) + 0.04852 x(1,2) >= 1
cut_clique_1(27,2):  0.04753 x(0,2) + 0.04852 x(1,2) >= 1
cut_clique_1(28,2):  0.04753 x(0,2) + 0.04804 x(1,2) >= 1
cut_clique_1(29,2):  0.04852 x(0,2) + 0.04749 x(1,2) >= 1
cut_clique_1(30,2):  0.04798 x(0,2) + 0.04755 x(1,2) >= 1
cut_clique_1(31,2):  0.04820 x(0,2) + 0.04765 x(1,2) >= 1
cut_clique_1(32,2):  0.04806 x(0,2) + 0.04757 x(1,2) >= 1
cut_clique_1(33,2):  0.04808 x(0,2) + 0.04789 x(1,2) >= 1
cut_clique_1(34,2):  0.04806 x(0,2) + 0.04755 x(1,2) >= 1
cut_clique_1(35,2):  0.04899 x(0,2) + 0.04698 x(1,2) >= 1
cut_clique_1(36,2):  0.04746 x(0,2) + 0.04807 x(1,2) >= 1
cut_clique_1(37,2):  0.04735 x(0,2) + 0.04828 x(1,2) >= 1
cut_clique_1(38,2):  0.04807 x(0,2) + 0.04788 x(1,2) >= 1
cut_clique_1(39,2):  0.04792 x(0,2) + 0.04779 x(1,2) >= 1
cut_clique_1(40,2):  0.04847 x(0,2) + 0.04722 x(1,2) >= 1
cut_clique_1(41,2):  0.04827 x(0,2) + 0.04740 x(1,2) >= 1
cut_clique_1(42,2):  0.04786 x(0,2) + 0.04764 x(1,2) >= 1
cut_clique_1(43,2):  0.04760 x(0,2) + 0.04789 x(1,2) >= 1
cut_clique_1(44,2):  0.04783 x(0,2) + 0.04788 x(1,2) >= 1
cut_clique_1(45,2):  0.04835 x(0,2) + 0.04764 x(1,2) >= 1
cut_clique_1(46,2):  0.04790 x(0,2) + 0.04783 x(1,2) >= 1
cut_clique_1(47,2):  0.04780 x(0,2) + 0.04795 x(1,2) >= 1
cut_clique_1(48,2):  0.04783 x(0,2) + 0.04804 x(1,2) >= 1
cut_clique_1(49,2):  0.04798 x(0,2) + 0.04788 x(1,2) >= 1
cut_clique_2(0,1):  0.14293 x(1,1) + 0.49169 x(2,1) >= 1
cut_clique_2(1,1):  0.14293 x(1,1) + 0.42811 x(2,1) >= 1
cut_clique_2(2,1):  0.14298 x(1,1) + 0.89620 x(2,1) >= 1
cut_clique_2(3,1):  0.14293 x(1,1) + 0.42286 x(2,1) >= 1
cut_clique_2(4,1):  0.14293 x(1,1) + 0.80688 x(2,1) >= 1
cut_clique_2(5,1):  0.14298 x(1,1) + 0.87397 x(2,1) >= 1
cut_clique_2(6,1):  0.14293 x(1,1) + 0.34547 x(2,1) >= 1
cut_clique_2(7,1):  0.14298 x(1,1) + 0.83925 x(2,1) >= 1
cut_clique_2(8,1):  0.14298 x(1,1) + 0.92641 x(2,1) >= 1
cut_clique_2(9,1):  0.14293 x(1,1) + 0.50900 x(2,1) >= 1
cut_clique_2(10,1):  0.14293 x(1,1) + 0.29490 x(2,1) >= 1
cut_clique_2(11,1):  0.14298 x(1,1) + 0.85753 x(2,1) >= 1
cut_clique_2(12,1):  0.14293 x(1,1) + 0.71005 x(2,1) >= 1
cut_clique_2(13,1):  0.14293 x(1,1) + 0.60200 x(2,1) >= 1
cut_clique_2(14,1):  0.14293 x(1,1) + 0.36928 x(2,1) >= 1
cut_clique_2(15,1):  0.14293 x(1,1) + 0.76120 x(2,1) >= 1
cut_clique_2(16,1):  0.14298 x(1,1) + 0.83710 x(2,1) >= 1
cut_clique_2(17,1):  0.14293 x(1,1) + 0.55927 x(2,1) >= 1
cut_clique_2(18,1):  0.14293 x(1,1) + 0.58723 x(2,1) >= 1
cut_clique_2(19,1):  0.14298 x(1,1) + 0.86828 x(2,1) >= 1
cut_clique_2(20,1):  0.14298 x(1,1) + 0.94298 x(2,1) >= 1
cut_clique_2(21,1):  0.14293 x(1,1) + 0.45042 x(2,1) >= 1
cut_clique_2(22,1):  0.14298 x(1,1) + 0.93471 x(2,1) >= 1
cut_clique_2(23,1):  0.14293 x(1,1) + 0.60174 x(2,1) >= 1
cut_clique_2(24,1):  0.14293 x(1,1) + 0.62676 x(2,1) >= 1
cut_clique_2(25,1):  0.14298 x(1,1) + 0.89862 x(2,1) >= 1
cut_clique_2(26,1):  0.14298 x(1,1) + 0.94997 x(2,1) >= 1
cut_clique_2(27,1):  0.14298 x(1,1) + 0.98442 x(2,1) >= 1
cut_clique_2(28,1):  0.14298 x(1,1) + 0.91551 x(2,1) >= 1
cut_clique_2(29,1):  0.14298 x(1,1) + 0.79659 x(2,1) >= 1
cut_clique_2(30,1):  0.14293 x(1,1) + 0.26246 x(2,1) >= 1
cut_clique_2(31,1):  0.14293 x(1,1) + 0.39286 x(2,1) >= 1
cut_clique_2(32,1):  0.14293 x(1,1) + 0.53275 x(2,1) >= 1
cut_clique_2(33,1):  0.14293 x(1,1) + 0.36559 x(2,1) >= 1
cut_clique_2(34,1):  0.14293 x(1,1) + 0.53445 x(2,1) >= 1
cut_clique_2(35,1):  0.14298 x(1,1) + 0.93755 x(2,1) >= 1
cut_clique_2(36,1):  0.14298 x(1,1) + 0.95340 x(2,1) >= 1
cut_clique_2(37,1):  0.14293 x(1,1) + 0.41677 x(2,1) >= 1
cut_clique_2(38,1):  0.14298 x(1,1) + 0.82978 x(2,1) >= 1
cut_clique_2(39,1):  0.14293 x(1,1) + 0.40171 x(2,1) >= 1
cut_clique_2(40,1):  0.14298 x(1,1) + 0.84470 x(2,1) >= 1
cut_clique_2(41,1):  0.14293 x(1,1) + 0.52374 x(2,1) >= 1
cut_clique_2(42,1):  0.14293 x(1,1) + 0.40010 x(2,1) >= 1
cut_clique_2(43,1):  0.14293 x(1,1) + 0.51784 x(2,1) >= 1
cut_clique_2(44,1):  0.14293 x(1,1) + 0.69200 x(2,1) >= 1
cut_clique_2(45,1):  0.14298 x(1,1) + 0.82487 x(2,1) >= 1
cut_clique_2(46,1):  0.14293 x(1,1) + 0.30402 x(2,1) >= 1
cut_clique_2(47,1):  0.14293 x(1,1) + 0.40087 x(2,1) >= 1
cut_clique_2(48,1):  0.14293 x(1,1) + 0.68875 x(2,1) >= 1
cut_clique_2(49,1):  0.14293 x(1,1) + 0.47948 x(2,1) >= 1
cut_clique_2(0,2):  0.04765 x(0,2) + 0.04767 x(1,2) >= 1
cut_clique_3(0,1):  0.02184 x(0,1) + 0.10981 x(1,1) + 0.19180 x(2,1) >= 1
cut_clique_3(1,1):  0.02205 x(0,1) + 0.10981 x(1,1) + 0.19180 x(2,1) >= 1
cut_clique_3(2,1):  0.02076 x(0,1) + 0.11188 x(1,1) + 0.19644 x(2,1) >= 1
cut_clique_3(3,1):  0.02118 x(0,1) + 0.10981 x(1,1) + 0.19180 x(2,1) >= 1
cut_clique_3(4,1):  0.02161 x(0,1) + 0.10981 x(1,1) + 0.19180 x(2,1) >= 1
cut_clique_3(5,1):  0.01997 x(0,1) + 0.11188 x(1,1) + 0.19855 x(2,1) >= 1
cut_clique_3(6,1):  0.02216 x(0,1) + 0.11192 x(1,1) + 0.19127 x(2,1) >= 1
cut_clique_3(7,1):  0.02261 x(0,1) + 0.10968 x(1,1) + 0.19127 x(2,1) >= 1
cut_clique_3(8,1):  0.01994 x(0,1) + 0.11188 x(1,1) + 0.19644 x(2,1) >= 1
cut_clique_3(9,1):  0.02383 x(0,1) + 0.10673 x(1,1) + 0.19800 x(2,1) >= 1
cut_clique_3(10,1):  0.02094 x(0,1) + 0.11188 x(1,1) + 0.19644 x(2,1) >= 1
cut_clique_3(11,1):  0.02149 x(0,1) + 0.10968 x(1,1) + 0.19127 x(2,1) >= 1
cut_clique_3(12,1):  0.02238 x(0,1) + 0.10968 x(1,1) + 0.19127 x(2,1) >= 1
cut_clique_3(13,1):  0.02149 x(0,1) + 0.11188 x(1,1) + 0.19127 x(2,1) >= 1
cut_clique_3(14,1):  0.02255 x(0,1) + 0.10964 x(1,1) + 0.19419 x(2,1) >= 1
cut_clique_3(15,1):  0.02216 x(0,1) + 0.10968 x(1,1) + 0.19127 x(2,1) >= 1
cut_clique_3(16,1):  0.02107 x(0,1) + 0.11168 x(1,1) + 0.19227 x(2,1) >= 1
cut_clique_3(17,1):  0.02056 x(0,1) + 0.11188 x(1,1) + 0.19644 x(2,1) >= 1
cut_clique_3(18,1):  0.02676 x(0,1) + 0.10536 x(1,1) + 0.20101 x(2,1) >= 1
cut_clique_3(19,1):  0.02676 x(0,1) + 0.10536 x(1,1) + 0.19699 x(2,1) >= 1
cut_clique_3(20,1):  0.02622 x(0,1) + 0.10536 x(1,1) + 0.19699 x(2,1) >= 1
cut_clique_3(21,1):  0.02518 x(0,1) + 0.10536 x(1,1) + 0.19699 x(2,1) >= 1
cut_clique_3(22,1):  0.02593 x(0,1) + 0.10536 x(1,1) + 0.19699 x(2,1) >= 1
cut_clique_3(23,1):  0.02515 x(0,1) + 0.10536 x(1,1) + 0.19699 x(2,1) >= 1
cut_clique_3(24,1):  0.02255 x(0,1) + 0.11168 x(1,1) + 0.19227 x(2,1) >= 1
cut_clique_3(25,1):  0.02515 x(0,1) + 0.10565 x(1,1) + 0.19699 x(2,1) >= 1
cut_clique_3(26,1):  0.02515 x(0,1) + 0.10565 x(1,1) + 0.20093 x(2,1) >= 1
cut_clique_3(27,1):  0.02641 x(0,1) + 0.10565 x(1,1) + 0.20093 x(2,1) >= 1
cut_clique_3(28,1):  0.02291 x(0,1) + 0.10745 x(1,1) + 0.19419 x(2,1) >= 1
cut_clique_3(29,1):  0.02720 x(0,1) + 0.10565 x(1,1) + 0.18887 x(2,1) >= 1
cut_clique_3(30,1):  0.02720 x(0,1) + 0.10565 x(1,1) + 0.17754 x(2,1) >= 1
cut_clique_3(31,1):  0.02720 x(0,1) + 0.10565 x(1,1) + 0.18819 x(2,1) >= 1
cut_clique_3(32,1):  0.02611 x(0,1) + 0.10565 x(1,1) + 0.18819 x(2,1) >= 1
cut_clique_3(33,1):  0.02455 x(0,1) + 0.10565 x(1,1) + 0.18819 x(2,1) >= 1
cut_clique_3(34,1):  0.02455 x(0,1) + 0.10882 x(1,1) + 0.18819 x(2,1) >= 1
cut_clique_3(35,1):  0.02455 x(0,1) + 0.10882 x(1,1) + 0.18443 x(2,1) >= 1
cut_clique_3(36,1):  0.02455 x(0,1) + 0.10882 x(1,1) + 0.19180 x(2,1) >= 1
cut_clique_3(37,1):  0.02455 x(0,1) + 0.10991 x(1,1) + 0.19180 x(2,1) >= 1
cut_clique_3(38,1):  0.02258 x(0,1) + 0.10991 x(1,1) + 0.19180 x(2,1) >= 1
cut_clique_3(39,1):  0.02281 x(0,1) + 0.10991 x(1,1) + 0.19180 x(2,1) >= 1
cut_clique_3(40,1):  0.02327 x(0,1) + 0.10991 x(1,1) + 0.19180 x(2,1) >= 1
cut_clique_3(41,1):  0.02373 x(0,1) + 0.10991 x(1,1) + 0.19180 x(2,1) >= 1
cut_clique_3(42,1):  0.02242 x(0,1) + 0.11168 x(1,1) + 0.19227 x(2,1) >= 1
cut_clique_3(43,1):  0.02121 x(0,1) + 0.10964 x(1,1) + 0.19419 x(2,1) >= 1
cut_clique_3(44,1):  0.02015 x(0,1) + 0.11188 x(1,1) + 0.19644 x(2,1) >= 1
cut_clique_3(45,1):  0.02187 x(0,1) + 0.10964 x(1,1) + 0.19419 x(2,1) >= 1
cut_clique_3(46,1):  0.02291 x(0,1) + 0.10964 x(1,1) + 0.19419 x(2,1) >= 1
cut_clique_3(47,1):  0.02226 x(0,1) + 0.10981 x(1,1) + 0.19180 x(2,1) >= 1
cut_clique_3(48,1):  0.02293 x(0,1) + 0.10981 x(1,1) + 0.19180 x(2,1) >= 1
cut_clique_3(49,1):  0.02453 x(0,1) + 0.10981 x(1,1) + 0.19180 x(2,1) >= 1
cut_clique_3(0,2):  0.05442 x(1,2) + 0.04523 x(2,2) >= 1
cut_clique_3(1,2):  0.05510 x(1,2) + 0.04523 x(2,2) >= 1
cut_clique_3(2,2):  0.05229 x(1,2) + 0.04917 x(2,2) >= 1
cut_clique_3(3,2):  0.05247 x(1,2) + 0.04577 x(2,2) >= 1
cut_clique_3(4,2):  0.05461 x(1,2) + 0.04503 x(2,2) >= 1
cut_clique_3(5,2):  0.05461 x(1,2) + 0.04413 x(2,2) >= 1
cut_clique_3(6,2):  0.05321 x(1,2) + 0.04567 x(2,2) >= 1
cut_clique_3(7,2):  0.05602 x(1,2) + 0.04445 x(2,2) >= 1
cut_clique_3(8,2):  0.05258 x(1,2) + 0.04883 x(2,2) >= 1
cut_clique_3(9,2):  0.05258 x(1,2) + 0.04586 x(2,2) >= 1
cut_clique_3(10,2):  0.05149 x(1,2) + 0.04960 x(2,2) >= 1
cut_clique_3(11,2):  0.05149 x(1,2) + 0.04762 x(2,2) >= 1
cut_clique_3(12,2):  0.05456 x(1,2) + 0.04538 x(2,2) >= 1
cut_clique_3(13,2):  0.05456 x(1,2) + 0.04448 x(2,2) >= 1
cut_clique_3(14,2):  0.05179 x(1,2) + 0.04799 x(2,2) >= 1
cut_clique_3(15,2):  0.05023 x(1,2) + 0.05022 x(2,2) >= 1
cut_clique_3(16,2):  0.05023 x(1,2) + 0.05122 x(2,2) >= 1
cut_clique_3(17,2):  0.05023 x(1,2) + 0.05064 x(2,2) >= 1
cut_clique_3(18,2):  0.05074 x(1,2) + 0.05064 x(2,2) >= 1
cut_clique_4(0,1):  0.14340 x(0,1) + 0.14392 x(2,1) >= 1
cut_clique_4(1,1):  0.14361 x(0,1) + 0.14348 x(2,1) >= 1
cut_clique_4(2,1):  0.14316 x(0,1) + 0.14396 x(2,1) >= 1
cut_clique_4(3,1):  0.14354 x(0,1) + 0.14353 x(2,1) >= 1
cut_clique_4(4,1):  0.14333 x(0,1) + 0.14334 x(2,1) >= 1
cut_clique_4(5,1):  0.14295 x(0,1) + 0.14401 x(2,1) >= 1
cut_clique_4(6,1):  0.14294 x(0,1) + 0.14406 x(2,1) >= 1
cut_clique_4(7,1):  0.14354 x(0,1) + 0.14376 x(2,1) >= 1
cut_clique_4(8,1):  0.14340 x(0,1) + 0.14349 x(2,1) >= 1
cut_clique_4(9,1):  0.14317 x(0,1) + 0.14408 x(2,1) >= 1
cut_clique_4(10,1):  0.14327 x(0,1) + 0.14292 x(2,1) >= 1
cut_clique_4(11,1):  0.14316 x(0,1) + 0.14415 x(2,1) >= 1
cut_clique_4(12,1):  0.14316 x(0,1) + 0.14397 x(2,1) >= 1
cut_clique_4(13,1):  0.14371 x(0,1) + 0.14329 x(2,1) >= 1
cut_clique_4(14,1):  0.14322 x(0,1) + 0.14304 x(2,1) >= 1
cut_clique_4(15,1):  0.14373 x(0,1) + 0.14340 x(2,1) >= 1
cut_clique_4(16,1):  0.14314 x(0,1) + 0.14292 x(2,1) >= 1
cut_clique_4(17,1):  0.14320 x(0,1) + 0.14328 x(2,1) >= 1
cut_clique_4(18,1):  0.14374 x(0,1) + 0.14305 x(2,1) >= 1
cut_clique_4(19,1):  0.14388 x(0,1) + 0.14328 x(2,1) >= 1
cut_clique_4(20,1):  0.14354 x(0,1) + 0.14295 x(2,1) >= 1
cut_clique_4(21,1):  0.14408 x(0,1) + 0.14299 x(2,1) >= 1
cut_clique_4(22,1):  0.14320 x(0,1) + 0.14313 x(2,1) >= 1
cut_clique_4(23,1):  0.14309 x(0,1) + 0.14377 x(2,1) >= 1
cut_clique_4(24,1):  0.14378 x(0,1) + 0.14328 x(2,1) >= 1
cut_clique_4(25,1):  0.14380 x(0,1) + 0.14329 x(2,1) >= 1
cut_clique_4(26,1):  0.14366 x(0,1) + 0.14329 x(2,1) >= 1
cut_clique_4(27,1):  0.14309 x(0,1) + 0.14314 x(2,1) >= 1
cut_clique_4(28,1):  0.14383 x(0,1) + 0.14318 x(2,1) >= 1
cut_clique_4(29,1):  0.14360 x(0,1) + 0.14340 x(2,1) >= 1
cut_clique_4(30,1):  0.14305 x(0,1) + 0.14349 x(2,1) >= 1
cut_clique_4(31,1):  0.14310 x(0,1) + 0.14309 x(2,1) >= 1
cut_clique_4(32,1):  0.14306 x(0,1) + 0.14419 x(2,1) >= 1
cut_clique_4(33,1):  0.14295 x(0,1) + 0.14351 x(2,1) >= 1
cut_clique_4(34,1):  0.14383 x(0,1) + 0.14296 x(2,1) >= 1
cut_clique_4(35,1):  0.14392 x(0,1) + 0.14327 x(2,1) >= 1
cut_clique_4(36,1):  0.14349 x(0,1) + 0.14374 x(2,1) >= 1
cut_clique_4(37,1):  0.14287 x(0,1) + 0.14350 x(2,1) >= 1
cut_clique_4(38,1):  0.14368 x(0,1) + 0.14355 x(2,1) >= 1
cut_clique_4(39,1):  0.14380 x(0,1) + 0.14325 x(2,1) >= 1
cut_clique_4(40,1):  0.14331 x(0,1) + 0.14368 x(2,1) >= 1
cut_clique_4(41,1):  0.14329 x(0,1) + 0.14357 x(2,1) >= 1
cut_clique_4(42,1):  0.14383 x(0,1) + 0.14317 x(2,1) >= 1
cut_clique_4(43,1):  0.14374 x(0,1) + 0.14340 x(2,1) >= 1
cut_clique_4(44,1):  0.14314 x(0,1) + 0.14419 x(2,1) >= 1
cut_clique_4(45,1):  0.14288 x(0,1) + 0.14375 x(2,1) >= 1
cut_clique_4(46,1):  0.14318 x(0,1) + 0.14372 x(2,1) >= 1
cut_clique_4(47,1):  0.14315 x(0,1) + 0.14323 x(2,1) >= 1
cut_clique_4(48,1):  0.14306 x(0,1) + 0.14289 x(2,1) >= 1
cut_clique_4(49,1):  0.14290 x(0,1) + 0.14294 x(2,1) >= 1
cut_clique_4(0,2):  0.05509 x(0,2) + 0.04410 x(2,2) >= 1
cut_clique_4(1,2):  0.05509 x(0,2) + 0.04584 x(2,2) >= 1
cut_clique_4(2,2):  0.05228 x(0,2) + 0.04584 x(2,2) >= 1
cut_clique_4(3,2):  0.05401 x(0,2) + 0.04671 x(2,2) >= 1
cut_clique_4(4,2):  0.05274 x(0,2) + 0.04671 x(2,2) >= 1
cut_clique_4(5,2):  0.05076 x(0,2) + 0.05003 x(2,2) >= 1
cut_clique_4(6,2):  0.05076 x(0,2) + 0.04953 x(2,2) >= 1
cut_clique_5(0,1):  0.06689 x(0,1) + 0.03830 x(1,1) + 0.06683 x(2,1) >= 1
cut_clique_5(1,1):  0.06716 x(0,1) + 0.03807 x(1,1) + 0.06690 x(2,1) >= 1
cut_clique_5(2,1):  0.06716 x(0,1) + 0.03807 x(1,1) + 0.06691 x(2,1) >= 1
cut_clique_5(3,1):  0.06636 x(0,1) + 0.03883 x(1,1) + 0.06752 x(2,1) >= 1
cut_clique_5(4,1):  0.06683 x(0,1) + 0.03802 x(1,1) + 0.06682 x(2,1) >= 1
cut_clique_5(5,1):  0.06757 x(0,1) + 0.03876 x(1,1) + 0.06650 x(2,1) >= 1
cut_clique_5(6,1):  0.06687 x(0,1) + 0.03833 x(1,1) + 0.06718 x(2,1) >= 1
cut_clique_5(7,1):  0.06716 x(0,1) + 0.03810 x(1,1) + 0.06674 x(2,1) >= 1
cut_clique_5(8,1):  0.06687 x(0,1) + 0.03871 x(1,1) + 0.06718 x(2,1) >= 1
cut_clique_5(9,1):  0.06734 x(0,1) + 0.03905 x(1,1) + 0.06649 x(2,1) >= 1
cut_clique_5(10,1):  0.06715 x(0,1) + 0.03820 x(1,1) + 0.06678 x(2,1) >= 1
cut_clique_5(11,1):  0.06683 x(0,1) + 0.03916 x(1,1) + 0.06685 x(2,1) >= 1
cut_clique_5(12,1):  0.06683 x(0,1) + 0.03920 x(1,1) + 0.06682 x(2,1) >= 1
cut_clique_5(13,1):  0.06771 x(0,1) + 0.03883 x(1,1) + 0.06636 x(2,1) >= 1
cut_clique_5(14,1):  0.06774 x(0,1) + 0.03825 x(1,1) + 0.06688 x(2,1) >= 1
cut_clique_5(15,1):  0.06767 x(0,1) + 0.03801 x(1,1) + 0.06685 x(2,1) >= 1
cut_clique_5(16,1):  0.06757 x(0,1) + 0.03830 x(1,1) + 0.06683 x(2,1) >= 1
cut_clique_5(17,1):  0.06650 x(0,1) + 0.03851 x(1,1) + 0.06741 x(2,1) >= 1
cut_clique_5(18,1):  0.06637 x(0,1) + 0.03857 x(1,1) + 0.06750 x(2,1) >= 1
cut_clique_5(19,1):  0.06706 x(0,1) + 0.03864 x(1,1) + 0.06688 x(2,1) >= 1
cut_clique_5(20,1):  0.06657 x(0,1) + 0.03897 x(1,1) + 0.06744 x(2,1) >= 1
cut_clique_5(21,1):  0.06706 x(0,1) + 0.03798 x(1,1) + 0.06783 x(2,1) >= 1
cut_clique_5(22,1):  0.06720 x(0,1) + 0.03788 x(1,1) + 0.06769 x(2,1) >= 1
cut_clique_5(23,1):  0.06706 x(0,1) + 0.03825 x(1,1) + 0.06688 x(2,1) >= 1
cut_clique_5(24,1):  0.06677 x(0,1) + 0.03850 x(1,1) + 0.06752 x(2,1) >= 1
cut_clique_5(25,1):  0.06715 x(0,1) + 0.03820 x(1,1) + 0.06668 x(2,1) >= 1
cut_clique_5(26,1):  0.06718 x(0,1) + 0.03809 x(1,1) + 0.06746 x(2,1) >= 1
cut_clique_5(27,1):  0.06706 x(0,1) + 0.03798 x(1,1) + 0.06782 x(2,1) >= 1
cut_clique_5(28,1):  0.06783 x(0,1) + 0.03820 x(1,1) + 0.06674 x(2,1) >= 1
cut_clique_5(29,1):  0.06687 x(0,1) + 0.03834 x(1,1) + 0.06718 x(2,1) >= 1
cut_clique_5(30,1):  0.06687 x(0,1) + 0.03873 x(1,1) + 0.06718 x(2,1) >= 1
cut_clique_5(31,1):  0.06706 x(0,1) + 0.03798 x(1,1) + 0.06693 x(2,1) >= 1
cut_clique_5(32,1):  0.06637 x(0,1) + 0.03871 x(1,1) + 0.06750 x(2,1) >= 1
cut_clique_5(33,1):  0.06748 x(0,1) + 0.03902 x(1,1) + 0.06661 x(2,1) >= 1
cut_clique_5(34,1):  0.06713 x(0,1) + 0.03801 x(1,1) + 0.06685 x(2,1) >= 1
cut_clique_5(35,1):  0.06677 x(0,1) + 0.03812 x(1,1) + 0.06752 x(2,1) >= 1
cut_clique_5(36,1):  0.06706 x(0,1) + 0.03832 x(1,1) + 0.06693 x(2,1) >= 1
cut_clique_5(37,1):  0.06716 x(0,1) + 0.03807 x(1,1) + 0.06759 x(2,1) >= 1
cut_clique_5(38,1):  0.06650 x(0,1) + 0.03897 x(1,1) + 0.06730 x(2,1) >= 1
cut_clique_5(39,1):  0.06663 x(0,1) + 0.03824 x(1,1) + 0.06795 x(2,1) >= 1
cut_clique_5(40,1):  0.06772 x(0,1) + 0.03825 x(1,1) + 0.06687 x(2,1) >= 1
cut_clique_5(41,1):  0.06663 x(0,1) + 0.03846 x(1,1) + 0.06727 x(2,1) >= 1
cut_clique_5(42,1):  0.06650 x(0,1) + 0.03851 x(1,1) + 0.06730 x(2,1) >= 1
cut_clique_5(43,1):  0.06637 x(0,1) + 0.03910 x(1,1) + 0.06750 x(2,1) >= 1
cut_clique_5(44,1):  0.06718 x(0,1) + 0.03787 x(1,1) + 0.06746 x(2,1) >= 1
cut_clique_5(45,1):  0.06783 x(0,1) + 0.03810 x(1,1) + 0.06674 x(2,1) >= 1
cut_clique_5(46,1):  0.06657 x(0,1) + 0.03878 x(1,1) + 0.06697 x(2,1) >= 1
cut_clique_5(47,1):  0.06706 x(0,1) + 0.03911 x(1,1) + 0.06693 x(2,1) >= 1
cut_clique_5(48,1):  0.06772 x(0,1) + 0.03825 x(1,1) + 0.06688 x(2,1) >= 1
cut_clique_5(49,1):  0.06698 x(0,1) + 0.03894 x(1,1) + 0.06668 x(2,1) >= 1
cut_clique_5(0,2):  0.02110 x(0,2) + 0.02105 x(1,2) + 0.05294 x(2,2) >= 1
cut_clique_5(1,2):  0.02068 x(0,2) + 0.02105 x(1,2) + 0.05294 x(2,2) >= 1
cut_clique_5(2,2):  0.02068 x(0,2) + 0.02105 x(1,2) + 0.04924 x(2,2) >= 1
cut_clique_5(3,2):  0.02068 x(0,2) + 0.02105 x(1,2) + 0.04776 x(2,2) >= 1
cut_clique_5(4,2):  0.02027 x(0,2) + 0.02105 x(1,2) + 0.04776 x(2,2) >= 1
cut_clique_5(5,2):  0.02027 x(0,2) + 0.02105 x(1,2) + 0.04633 x(2,2) >= 1
cut_clique_5(6,2):  0.01967 x(0,2) + 0.01991 x(1,2) + 0.05044 x(2,2) >= 1
cut_clique_5(7,2):  0.01967 x(0,2) + 0.01991 x(1,2) + 0.04994 x(2,2) >= 1
Bounds
 0 <= C <= 44
 14 <= x(0,0) <= 43
 0 <= y(0,1,0) <= 1
 0 <= y(1,0,0) <= 1
 0 <= v(0,1,0)p <= 36
 0 <= v(0,1,0)n <= 23
 0 <= v(1,0,0)p <= 19
 0 <= v(1,0,0)n <= 40
 0 <= u(0,1,0)p <= 440
 0 <= u(0,1,0)n <= 440
 0 <= u(1,0,0)p <= 440
 0 <= u(1,0,0)n <= 440
 0 <= y(0,2,0) <= 1
 0 <= y(2,0,0) <= 1
 0 <= v(0,2,0)p <= 28
 0 <= v(0,2,0)n <= 30
 0 <= v(2,0,0)p <= 27
 0 <= v(2,0,0)n <= 31
 0 <= u(0,2,0)p <= 440
 0 <= u(0,2,0)n <= 440
 0 <= u(2,0,0)p <= 440
 0 <= u(2,0,0)n <= 440
 4 <= x(1,0) <= 34
 0 <= y(1,2,0) <= 1
 0 <= y(2,1,0) <= 1
 0 <= v(1,2,0)p <= 19
 0 <= v(1,2,0)n <= 40
 0 <= v(2,1,0)p <= 35
 0 <= v(2,1,0)n <= 24
 0 <= u(1,2,0)p <= 440
 0 <= u(1,2,0)n <= 440
 0 <= u(2,1,0)p <= 440
 0 <= u(2,1,0)n <= 440
 13 <= x(2,0) <= 42
 0 <= x(0,1) <= 29
 0 <= y(0,1,1) <= 1
 0 <= y(1,0,1) <= 1
 0 <= v(0,1,1)p <= 25
 0 <= v(0,1,1)n <= 34
 0 <= v(1,0,1)p <= 23
 0 <= v(1,0,1)n <= 36
 0 <= u(0,1,1)p <= 440
 0 <= u(0,1,1)n <= 440
 0 <= u(1,0,1)p <= 440
 0 <= u(1,0,1)n <= 440
 0 <= y(0,2,1) <= 1
 0 <= y(2,0,1) <= 1
 0 <= v(0,2,1)p <= 22
 0 <= v(0,2,1)n <= 36
 0 <= v(2,0,1)p <= 22
 0 <= v(2,0,1)n <= 36
 0 <= u(0,2,1)p <= 440
 0 <= u(0,2,1)n <= 440
 0 <= u(2,0,1)p <= 440
 0 <= u(2,0,1)n <= 440
 0 <= x(1,1) <= 30
 0 <= y(1,2,1) <= 1
 0 <= y(2,1,1) <= 1
 0 <= v(1,2,1)p <= 23
 0 <= v(1,2,1)n <= 36
 0 <= v(2,1,1)p <= 25
 0 <= v(2,1,1)n <= 34
 0 <= u(1,2,1)p <= 440
 0 <= u(1,2,1)n <= 440
 0 <= u(2,1,1)p <= 440
 0 <= u(2,1,1)n <= 440
 0 <= x(2,1) <= 29
 7 <= x(0,2) <= 36
 0 <= y(0,1,2) <= 1
 0 <= y(1,0,2) <= 1
 0 <= v(0,1,2)p <= 22
 0 <= v(0,1,2)n <= 37
 0 <= v(1,0,2)p <= 23
 0 <= v(1,0,2)n <= 36
 0 <= u(0,1,2)p <= 440
 0 <= u(0,1,2)n <= 440
 0 <= u(1,0,2)p <= 440
 0 <= u(1,0,2)n <= 440
 0 <= y(0,2,2) <= 1
 0 <= y(2,0,2) <= 1
 0 <= v(0,2,2)p <= 23
 0 <= v(0,2,2)n <= 35
 0 <= v(2,0,2)p <= 22
 0 <= v(2,0,2)n <= 36
 0 <= u(0,2,2)p <= 440
 0 <= u(0,2,2)n <= 440
 0 <= u(2,0,2)p <= 440
 0 <= u(2,0,2)n <= 440
 7 <= x(1,2) <= 37
 0 <= y(1,2,2) <= 1
 0 <= y(2,1,2) <= 1
 0 <= v(1,2,2)p <= 24
 0 <= v(1,2,2)n <= 35
 0 <= v(2,1,2)p <= 22
 0 <= v(2,1,2)n <= 37
 0 <= u(1,2,2)p <= 440
 0 <= u(1,2,2)n <= 440
 0 <= u(2,1,2)p <= 440
 0 <= u(2,1,2)n <= 440
 7 <= x(2,2) <= 36
End
